n = 21;
k = 2;
roles = [
{d, g},
{m, g},
{d, g},
{m, d},
{g, d},
{d, f},
{m, d},
{g, d},
{m, d},
{f, m},
{m, g},
{m, f},
{m, f},
{d, f},
{f, m},
{f, m},
{d, g},
{f, m},
{f, g},
{g, m},
{m, d}
];
num_pairs = 3;
player1 = [21, 10, 17];
player2 = [15, 1, 19];
